NAME          
ROWS
 N  OBJ
 L  c1
COLUMNS
    MARKER    'MARKER'                 'INTORG'
    x[1]      c1        526
    x[1]      OBJ       -276
    x[2]      c1        709
    x[2]      OBJ       -585
    x[3]      c1        578
    x[3]      OBJ       -60
    x[4]      c1        183
    x[4]      OBJ       -542
    x[5]      c1        67
    x[5]      OBJ       -889
    x[6]      c1        25
    x[6]      OBJ       -715
    x[7]      c1        203
    x[7]      OBJ       -387
    x[8]      c1        915
    x[8]      OBJ       -379
    x[9]      c1        632
    x[9]      OBJ       -270
    x[10]     c1        578
    x[10]     OBJ       -583
RHS
    rhs       c1        2208
RANGES
BOUNDS
 BV bounds    x[1]
 BV bounds    x[2]
 BV bounds    x[3]
 BV bounds    x[4]
 BV bounds    x[5]
 BV bounds    x[6]
 BV bounds    x[7]
 BV bounds    x[8]
 BV bounds    x[9]
 BV bounds    x[10]
ENDATA
